(declare-const X String)
; Logger.*aresflashdownloader\x2Ecom
(assert (not (str.in_re X (re.++ (str.to_re "Logger") (re.* re.allchar) (str.to_re "aresflashdownloader.com\u{a}")))))
; gpstool\x2eglobaladserver\x2ecomfriend_nickname=CIA-Notify-Tezt
(assert (not (str.in_re X (str.to_re "gpstool.globaladserver.comfriend_nickname=CIA-Notify-Tezt\u{a}"))))
(check-sat)
